c ind 101 103 105 11 12 142 17 197 22 220 0
c ind 27 289 291 293 295 302 309 317 32 324 0
c ind 331 338 350 366 37 377 411 42 434 47 0
c ind 5 52 57 6 62 67 72 77 82 87 0
c ind 92 99 0
p cnf 496 1947
-1 -2 7 0
-1 2 283 0
-10 -11 0
-100 -101 12 0
-100 -12 101 0
-102 -103 12 0
-102 -12 103 0
-104 -105 12 0
-104 -12 105 0
-106 -107 110 0
-106 107 12 0
-107 -108 12 0
-107 -12 108 0
-108 -109 -12 0
-108 109 12 0
-109 -9 -55 0
-109 9 55 0
-110 -111 114 0
-110 111 12 0
-111 -112 12 0
-111 -12 112 0
-112 -113 -12 0
-112 113 12 0
-113 -15 -60 0
-113 15 60 0
-114 -64 115 0
-114 64 12 0
-115 -116 119 0
-115 116 12 0
-116 -117 12 0
-116 -12 117 0
-117 -118 -12 0
-117 118 12 0
-118 -25 -70 0
-118 25 70 0
-119 -120 123 0
-119 120 12 0
-12 0
-120 -12 121 0
-120 -121 12 0
-121 -122 -12 0
-121 122 12 0
-122 -30 -75 0
-122 30 75 0
-123 -124 127 0
-123 124 12 0
-124 -12 125 0
-124 -125 12 0
-125 -126 -12 0
-125 126 12 0
-126 -35 -80 0
-126 35 80 0
-127 -128 88 0
-127 128 12 0
-128 -12 129 0
-128 -129 12 0
-129 -130 -12 0
-129 130 12 0
-13 -14 18 0
-13 14 12 0
-130 -40 -85 0
-130 40 85 0
-131 -107 132 0
-131 107 252 0
-132 -133 137 0
-132 133 164 0
-133 104 0
-133 134 0
-134 102 0
-134 135 0
-135 100 0
-135 136 0
-136 -6 99 0
-136 -99 6 0
-137 -111 138 0
-137 111 12 0
-138 -139 143 0
-138 139 152 0
-139 -140 6 0
-139 -6 140 0
-14 -12 15 0
-14 -15 12 0
-140 -141 -6 0
-140 141 6 0
-141 -142 0
-143 -144 145 0
-143 144 12 0
-144 -12 65 0
-144 -65 12 0
-145 -116 146 0
-145 116 12 0
-146 -120 147 0
-146 120 12 0
-147 -148 149 0
-147 148 12 0
-148 -6 80 0
-148 -80 6 0
-149 -128 150 0
-149 128 12 0
-15 -16 -6 0
-15 16 6 0
-150 -151 6 0
-150 151 12 0
-151 -6 90 0
-151 -90 6 0
-152 -153 156 0
-152 153 12 0
-153 -12 154 0
-153 -154 12 0
-154 -155 -12 0
-154 155 12 0
-155 -20 -65 0
-155 20 65 0
-156 -116 157 0
-156 116 12 0
-157 -120 158 0
-157 120 12 0
-158 -124 159 0
-158 124 12 0
-159 -128 160 0
-159 128 12 0
-16 -17 0
-160 -161 6 0
-160 161 12 0
-161 -12 162 0
-161 -162 12 0
-162 -163 -12 0
-162 163 12 0
-163 -45 -90 0
-163 45 90 0
-164 -165 169 0
-164 165 174 0
-165 104 0
-165 166 0
-166 102 0
-166 167 0
-167 168 0
-167 98 0
-168 -101 6 0
-168 -6 101 0
-169 -111 170 0
-169 111 12 0
-170 -153 171 0
-170 153 12 0
-171 -116 172 0
-171 116 12 0
-172 -120 173 0
-172 120 12 0
-173 -79 159 0
-173 79 12 0
-174 -175 178 0
-174 175 183 0
-175 104 0
-175 176 0
-176 102 0
-176 177 0
-177 136 0
-177 168 0
-178 -111 179 0
-178 111 12 0
-179 -153 180 0
-179 153 12 0
-18 -19 23 0
-18 19 12 0
-180 -116 181 0
-180 116 12 0
-181 -182 158 0
-181 182 12 0
-182 -6 75 0
-182 -75 6 0
-183 -184 187 0
-183 184 201 0
-184 104 0
-184 185 0
-185 186 0
-185 97 0
-186 -103 6 0
-186 -6 103 0
-187 -111 188 0
-187 111 12 0
-188 -153 189 0
-188 153 12 0
-189 -116 190 0
-189 116 12 0
-19 -20 6 0
-19 -6 20 0
-190 -120 191 0
-190 120 12 0
-191 -124 192 0
-191 124 12 0
-192 -128 193 0
-192 128 200 0
-193 -194 198 0
-193 194 160 0
-194 -195 6 0
-194 -6 195 0
-195 -196 -6 0
-195 196 6 0
-196 -197 0
-198 -199 160 0
-198 199 12 0
-199 -6 85 0
-199 -85 6 0
-2 -3 6 0
-2 -6 3 0
-20 -21 -6 0
-20 21 6 0
-200 -194 198 0
-200 194 12 0
-201 -202 204 0
-201 202 211 0
-202 104 0
-202 203 0
-203 135 0
-203 186 0
-204 -205 206 0
-204 205 12 0
-205 -6 60 0
-205 -60 6 0
-206 -153 207 0
-206 153 12 0
-207 -116 208 0
-207 116 12 0
-208 -120 209 0
-208 120 12 0
-209 -124 210 0
-209 124 12 0
-21 -22 0
-210 -84 160 0
-210 84 12 0
-211 -212 214 0
-211 212 224 0
-212 166 0
-212 213 0
-213 -105 6 0
-213 -6 105 0
-214 -59 215 0
-214 59 12 0
-215 -153 216 0
-215 153 12 0
-216 -217 221 0
-216 217 156 0
-217 -218 6 0
-217 -6 218 0
-218 -219 -6 0
-218 219 6 0
-219 -220 0
-221 -116 222 0
-221 116 12 0
-222 -74 223 0
-222 74 12 0
-223 -148 159 0
-223 148 12 0
-224 -225 169 0
-224 225 227 0
-225 104 0
-225 226 0
-226 167 0
-226 186 0
-227 -228 230 0
-227 228 234 0
-228 104 0
-228 229 0
-229 177 0
-229 186 0
-23 -24 28 0
-23 24 12 0
-230 -111 231 0
-230 111 12 0
-231 -153 232 0
-231 153 12 0
-232 -233 157 0
-232 233 12 0
-233 -6 70 0
-233 -70 6 0
-234 -235 187 0
-234 235 236 0
-235 213 0
-235 96 0
-236 -237 12 0
-236 237 238 0
-237 134 0
-237 213 0
-238 -59 239 0
-238 59 250 0
-239 -111 240 0
-239 111 249 0
-24 -12 25 0
-24 -25 12 0
-240 -241 242 0
-240 241 63 0
-241 176 0
-241 213 0
-242 -64 243 0
-242 64 247 0
-243 -153 244 0
-243 153 246 0
-244 -217 245 0
-244 217 156 0
-245 -69 119 0
-245 69 12 0
-246 -217 245 0
-246 217 12 0
-247 -153 248 0
-247 153 12 0
-248 -217 12 0
-248 217 156 0
-249 -241 12 0
-249 241 63 0
-25 -26 -6 0
-25 26 6 0
-250 -111 251 0
-250 111 12 0
-251 -241 242 0
-251 241 12 0
-252 -133 12 0
-252 133 253 0
-253 -165 12 0
-253 165 254 0
-254 -175 12 0
-254 175 255 0
-255 -184 12 0
-255 184 256 0
-256 -202 12 0
-256 202 257 0
-257 -212 12 0
-257 212 258 0
-258 -225 12 0
-258 225 259 0
-259 -228 12 0
-259 228 260 0
-26 -27 0
-260 -235 12 0
-260 235 236 0
-261 -95 106 0
-261 95 262 0
-262 -107 263 0
-262 107 274 0
-263 -133 137 0
-263 133 264 0
-264 -165 169 0
-264 165 265 0
-265 -175 178 0
-265 175 266 0
-266 -184 187 0
-266 184 267 0
-267 -202 204 0
-267 202 268 0
-268 -212 214 0
-268 212 269 0
-269 -225 169 0
-269 225 270 0
-270 -228 230 0
-270 228 271 0
-271 -235 187 0
-271 235 272 0
-272 -237 273 0
-272 237 12 0
-273 -111 206 0
-273 111 12 0
-274 -133 12 0
-274 133 275 0
-275 -165 12 0
-275 165 276 0
-276 -175 12 0
-276 175 277 0
-277 -184 12 0
-277 184 278 0
-278 -202 12 0
-278 202 279 0
-279 -212 12 0
-279 212 280 0
-28 -29 33 0
-28 29 12 0
-280 -225 12 0
-280 225 281 0
-281 -228 12 0
-281 228 282 0
-282 -235 12 0
-282 235 272 0
-283 -8 284 0
-283 8 475 0
-284 -285 296 0
-284 285 339 0
-285 286 0
-285 294 0
-286 287 0
-286 292 0
-287 288 0
-287 290 0
-288 -12 289 0
-288 -289 12 0
-29 -12 30 0
-29 -30 12 0
-290 -12 291 0
-290 -291 12 0
-292 -12 293 0
-292 -293 12 0
-294 -12 295 0
-294 -295 12 0
-296 -297 303 0
-296 297 12 0
-297 -12 298 0
-297 -298 12 0
-298 -299 -12 0
-298 299 12 0
-299 -300 -9 0
-299 300 9 0
-3 -4 -6 0
-3 4 6 0
-30 -31 -6 0
-30 31 6 0
-300 -301 -6 0
-300 301 6 0
-301 -302 0
-303 -304 310 0
-303 304 12 0
-304 -12 305 0
-304 -305 12 0
-305 -306 -12 0
-305 306 12 0
-306 -307 -15 0
-306 307 15 0
-307 -308 -6 0
-307 308 6 0
-308 -309 0
-31 -32 0
-310 -19 311 0
-310 19 12 0
-311 -312 318 0
-311 312 12 0
-312 -12 313 0
-312 -313 12 0
-313 -314 -12 0
-313 314 12 0
-314 -315 -25 0
-314 315 25 0
-315 -316 -6 0
-315 316 6 0
-316 -317 0
-318 -319 325 0
-318 319 12 0
-319 -12 320 0
-319 -320 12 0
-320 -321 -12 0
-320 321 12 0
-321 -322 -30 0
-321 322 30 0
-322 -323 -6 0
-322 323 6 0
-323 -324 0
-325 -326 332 0
-325 326 12 0
-326 -12 327 0
-326 -327 12 0
-327 -328 -12 0
-327 328 12 0
-328 -329 -35 0
-328 329 35 0
-329 -330 -6 0
-329 330 6 0
-33 -34 38 0
-33 34 12 0
-330 -331 0
-332 -333 43 0
-332 333 12 0
-333 -12 334 0
-333 -334 12 0
-334 -335 -12 0
-334 335 12 0
-335 -336 -40 0
-335 336 40 0
-336 -337 -6 0
-336 337 6 0
-337 -338 0
-339 -297 340 0
-339 297 466 0
-34 -12 35 0
-34 -35 12 0
-340 -341 345 0
-340 341 378 0
-341 294 0
-341 342 0
-342 292 0
-342 343 0
-343 290 0
-343 344 0
-344 -289 6 0
-344 -6 289 0
-345 -304 346 0
-345 304 12 0
-346 -347 351 0
-346 347 360 0
-347 -348 6 0
-347 -6 348 0
-348 -349 -6 0
-348 349 6 0
-349 -350 0
-35 -36 -6 0
-35 36 6 0
-351 -352 353 0
-351 352 12 0
-352 -12 20 0
-352 -20 12 0
-353 -312 354 0
-353 312 12 0
-354 -319 355 0
-354 319 12 0
-355 -356 357 0
-355 356 12 0
-356 -35 6 0
-356 -6 35 0
-357 -333 358 0
-357 333 12 0
-358 -359 48 0
-358 359 12 0
-359 -45 6 0
-359 -6 45 0
-36 -37 0
-360 -361 367 0
-360 361 12 0
-361 -12 362 0
-361 -362 12 0
-362 -363 -12 0
-362 363 12 0
-363 -364 -20 0
-363 364 20 0
-364 -365 -6 0
-364 365 6 0
-365 -366 0
-367 -312 368 0
-367 312 12 0
-368 -319 369 0
-368 319 12 0
-369 -326 370 0
-369 326 12 0
-370 -333 371 0
-370 333 12 0
-371 -372 48 0
-371 372 12 0
-372 -12 373 0
-372 -373 12 0
-373 -374 -12 0
-373 374 12 0
-374 -375 -45 0
-374 375 45 0
-375 -376 -6 0
-375 376 6 0
-376 -377 0
-378 -379 383 0
-378 379 388 0
-379 294 0
-379 380 0
-38 -39 43 0
-38 39 12 0
-380 292 0
-380 381 0
-381 288 0
-381 382 0
-382 -291 6 0
-382 -6 291 0
-383 -304 384 0
-383 304 12 0
-384 -361 385 0
-384 361 12 0
-385 -312 386 0
-385 312 12 0
-386 -319 387 0
-386 319 12 0
-387 -34 370 0
-387 34 12 0
-388 -389 392 0
-388 389 397 0
-389 294 0
-389 390 0
-39 -12 40 0
-39 -40 12 0
-390 292 0
-390 391 0
-391 344 0
-391 382 0
-392 -304 393 0
-392 304 12 0
-393 -361 394 0
-393 361 12 0
-394 -312 395 0
-394 312 12 0
-395 -396 369 0
-395 396 12 0
-396 -30 6 0
-396 -6 30 0
-397 -398 401 0
-397 398 415 0
-398 294 0
-398 399 0
-399 287 0
-399 400 0
-4 -5 0
-40 -41 -6 0
-40 41 6 0
-400 -293 6 0
-400 -6 293 0
-401 -304 402 0
-401 304 12 0
-402 -361 403 0
-402 361 12 0
-403 -312 404 0
-403 312 12 0
-404 -319 405 0
-404 319 12 0
-405 -326 406 0
-405 326 12 0
-406 -333 407 0
-406 333 414 0
-407 -408 412 0
-407 408 371 0
-408 -409 6 0
-408 -6 409 0
-409 -410 -6 0
-409 410 6 0
-41 -42 0
-410 -411 0
-412 -413 371 0
-412 413 12 0
-413 -40 6 0
-413 -6 40 0
-414 -408 412 0
-414 408 12 0
-415 -416 418 0
-415 416 425 0
-416 294 0
-416 417 0
-417 343 0
-417 400 0
-418 -419 420 0
-418 419 12 0
-419 -15 6 0
-419 -6 15 0
-420 -361 421 0
-420 361 12 0
-421 -312 422 0
-421 312 12 0
-422 -319 423 0
-422 319 12 0
-423 -326 424 0
-423 326 12 0
-424 -39 371 0
-424 39 12 0
-425 -426 428 0
-425 426 438 0
-426 380 0
-426 427 0
-427 -295 6 0
-427 -6 295 0
-428 -14 429 0
-428 14 12 0
-429 -361 430 0
-429 361 12 0
-43 -44 48 0
-43 44 12 0
-430 -431 435 0
-430 431 367 0
-431 -432 6 0
-431 -6 432 0
-432 -433 -6 0
-432 433 6 0
-433 -434 0
-435 -312 436 0
-435 312 12 0
-436 -29 437 0
-436 29 12 0
-437 -356 370 0
-437 356 12 0
-438 -439 383 0
-438 439 441 0
-439 294 0
-439 440 0
-44 -12 45 0
-44 -45 12 0
-440 381 0
-440 400 0
-441 -442 444 0
-441 442 448 0
-442 294 0
-442 443 0
-443 391 0
-443 400 0
-444 -304 445 0
-444 304 12 0
-445 -361 446 0
-445 361 12 0
-446 -447 368 0
-446 447 12 0
-447 -25 6 0
-447 -6 25 0
-448 -449 401 0
-448 449 450 0
-449 286 0
-449 427 0
-45 -46 -6 0
-45 46 6 0
-450 -451 12 0
-450 451 452 0
-451 342 0
-451 427 0
-452 -14 453 0
-452 14 464 0
-453 -304 454 0
-453 304 463 0
-454 -455 456 0
-454 455 18 0
-455 390 0
-455 427 0
-456 -19 457 0
-456 19 461 0
-457 -361 458 0
-457 361 460 0
-458 -431 459 0
-458 431 367 0
-459 -24 318 0
-459 24 12 0
-46 -47 0
-460 -431 459 0
-460 431 12 0
-461 -361 462 0
-461 361 12 0
-462 -431 12 0
-462 431 367 0
-463 -455 12 0
-463 455 18 0
-464 -304 465 0
-464 304 12 0
-465 -455 456 0
-465 455 12 0
-466 -341 12 0
-466 341 467 0
-467 -379 12 0
-467 379 468 0
-468 -389 12 0
-468 389 469 0
-469 -398 12 0
-469 398 470 0
-470 -416 12 0
-470 416 471 0
-471 -426 12 0
-471 426 472 0
-472 -439 12 0
-472 439 473 0
-473 -442 12 0
-473 442 474 0
-474 -449 12 0
-474 449 450 0
-475 -285 296 0
-475 285 476 0
-476 -297 477 0
-476 297 488 0
-477 -341 345 0
-477 341 478 0
-478 -379 383 0
-478 379 479 0
-479 -389 392 0
-479 389 480 0
-48 -49 53 0
-48 49 93 0
-480 -398 401 0
-480 398 481 0
-481 -416 418 0
-481 416 482 0
-482 -426 428 0
-482 426 483 0
-483 -439 383 0
-483 439 484 0
-484 -442 444 0
-484 442 485 0
-485 -449 401 0
-485 449 486 0
-486 -451 487 0
-486 451 12 0
-487 -304 420 0
-487 304 12 0
-488 -341 12 0
-488 341 489 0
-489 -379 12 0
-489 379 490 0
-49 -50 6 0
-49 -6 50 0
-490 -389 12 0
-490 389 491 0
-491 -398 12 0
-491 398 492 0
-492 -416 12 0
-492 416 493 0
-493 -426 12 0
-493 426 494 0
-494 -439 12 0
-494 439 495 0
-495 -442 12 0
-495 442 496 0
-496 -449 12 0
-496 449 486 0
-50 -51 -6 0
-50 51 6 0
-51 -52 0
-53 -54 58 0
-53 54 12 0
-54 -12 55 0
-54 -55 12 0
-55 -56 -6 0
-55 56 6 0
-56 -57 0
-58 -59 63 0
-58 59 12 0
-59 -12 60 0
-59 -60 12 0
-60 -61 -6 0
-60 61 6 0
-61 -62 0
-63 -64 68 0
-63 64 12 0
-64 -6 65 0
-64 -65 6 0
-65 -66 -6 0
-65 66 6 0
-66 -67 0
-68 -69 73 0
-68 69 12 0
-69 -12 70 0
-69 -70 12 0
-7 -8 13 0
-7 8 12 0
-70 -71 -6 0
-70 71 6 0
-71 -72 0
-73 -74 78 0
-73 74 12 0
-74 -12 75 0
-74 -75 12 0
-75 -76 -6 0
-75 76 6 0
-76 -77 0
-78 -79 83 0
-78 79 12 0
-79 -12 80 0
-79 -80 12 0
-8 -12 9 0
-8 -9 12 0
-80 -81 -6 0
-80 81 6 0
-81 -82 0
-83 -84 88 0
-83 84 12 0
-84 -12 85 0
-84 -85 12 0
-85 -86 -6 0
-85 86 6 0
-86 -87 0
-88 -89 6 0
-88 89 12 0
-89 -12 90 0
-89 -90 12 0
-9 -10 -6 0
-9 10 6 0
-90 -91 -6 0
-90 91 6 0
-91 -92 0
-93 -54 94 0
-93 54 261 0
-94 -95 106 0
-94 95 131 0
-95 104 0
-95 96 0
-96 102 0
-96 97 0
-97 100 0
-97 98 0
-98 -12 99 0
-98 -99 12 0
1 -2 -7 0
1 -7 -283 0
1 0
1 2 -283 0
10 11 0
100 -101 -12 0
100 101 12 0
102 -103 -12 0
102 103 12 0
104 -105 -12 0
104 105 12 0
106 -107 -110 0
106 -110 -12 0
106 107 -12 0
107 -108 -12 0
107 108 12 0
108 -109 12 0
108 -12 109 0
109 -55 9 0
109 -9 55 0
110 -111 -114 0
110 -114 -12 0
110 111 -12 0
111 -112 -12 0
111 112 12 0
112 -113 12 0
112 -12 113 0
113 -15 60 0
113 -60 15 0
114 -115 -12 0
114 -64 -115 0
114 64 -12 0
115 -116 -119 0
115 -119 -12 0
115 116 -12 0
116 -117 -12 0
116 117 12 0
117 -118 12 0
117 -12 118 0
118 -25 70 0
118 -70 25 0
119 -120 -123 0
119 -123 -12 0
119 120 -12 0
120 -121 -12 0
120 121 12 0
121 -12 122 0
121 -122 12 0
122 -30 75 0
122 -75 30 0
123 -124 -127 0
123 -127 -12 0
123 124 -12 0
124 -125 -12 0
124 125 12 0
125 -12 126 0
125 -126 12 0
126 -35 80 0
126 -80 35 0
127 -128 -88 0
127 -88 -12 0
127 128 -12 0
128 -129 -12 0
128 129 12 0
129 -12 130 0
129 -130 12 0
13 -14 -18 0
13 -18 -12 0
13 14 -12 0
130 -40 85 0
130 -85 40 0
131 -107 -132 0
131 -132 -252 0
131 107 -252 0
132 -133 -137 0
132 -137 -164 0
132 133 -164 0
133 -134 -104 0
134 -135 -102 0
135 -136 -100 0
136 -99 -6 0
136 99 6 0
137 -111 -138 0
137 -138 -12 0
137 111 -12 0
138 -139 -143 0
138 -143 -152 0
138 139 -152 0
139 -140 -6 0
139 140 6 0
14 -15 -12 0
14 15 12 0
140 -141 6 0
140 -6 141 0
141 142 0
143 -144 -145 0
143 -145 -12 0
143 144 -12 0
144 -65 -12 0
144 65 12 0
145 -116 -146 0
145 -146 -12 0
145 116 -12 0
146 -120 -147 0
146 -147 -12 0
146 120 -12 0
147 -148 -149 0
147 -149 -12 0
147 148 -12 0
148 -80 -6 0
148 80 6 0
149 -128 -150 0
149 -150 -12 0
149 128 -12 0
15 -16 6 0
15 -6 16 0
150 -151 -6 0
150 -6 -12 0
150 151 -12 0
151 -90 -6 0
151 90 6 0
152 -153 -156 0
152 -156 -12 0
152 153 -12 0
153 -154 -12 0
153 154 12 0
154 -12 155 0
154 -155 12 0
155 -20 65 0
155 -65 20 0
156 -116 -157 0
156 -157 -12 0
156 116 -12 0
157 -120 -158 0
157 -158 -12 0
157 120 -12 0
158 -124 -159 0
158 -159 -12 0
158 124 -12 0
159 -128 -160 0
159 -160 -12 0
159 128 -12 0
16 17 0
160 -161 -6 0
160 -6 -12 0
160 161 -12 0
161 -162 -12 0
161 162 12 0
162 -12 163 0
162 -163 12 0
163 -45 90 0
163 -90 45 0
164 -165 -169 0
164 -169 -174 0
164 165 -174 0
165 -166 -104 0
166 -167 -102 0
167 -98 -168 0
168 -101 -6 0
168 101 6 0
169 -111 -170 0
169 -170 -12 0
169 111 -12 0
170 -153 -171 0
170 -171 -12 0
170 153 -12 0
171 -116 -172 0
171 -172 -12 0
171 116 -12 0
172 -120 -173 0
172 -173 -12 0
172 120 -12 0
173 -159 -12 0
173 -79 -159 0
173 79 -12 0
174 -175 -178 0
174 -178 -183 0
174 175 -183 0
175 -176 -104 0
176 -177 -102 0
177 -136 -168 0
178 -111 -179 0
178 -179 -12 0
178 111 -12 0
179 -153 -180 0
179 -180 -12 0
179 153 -12 0
18 -19 -23 0
18 -23 -12 0
18 19 -12 0
180 -116 -181 0
180 -181 -12 0
180 116 -12 0
181 -158 -12 0
181 -182 -158 0
181 182 -12 0
182 -75 -6 0
182 75 6 0
183 -184 -187 0
183 -187 -201 0
183 184 -201 0
184 -185 -104 0
185 -97 -186 0
186 -103 -6 0
186 103 6 0
187 -111 -188 0
187 -188 -12 0
187 111 -12 0
188 -153 -189 0
188 -189 -12 0
188 153 -12 0
189 -116 -190 0
189 -190 -12 0
189 116 -12 0
19 -20 -6 0
19 20 6 0
190 -120 -191 0
190 -191 -12 0
190 120 -12 0
191 -124 -192 0
191 -192 -12 0
191 124 -12 0
192 -128 -193 0
192 -193 -200 0
192 128 -200 0
193 -194 -198 0
193 -198 -160 0
193 194 -160 0
194 -195 -6 0
194 195 6 0
195 -196 6 0
195 -6 196 0
196 197 0
198 -160 -12 0
198 -199 -160 0
198 199 -12 0
199 -85 -6 0
199 85 6 0
2 -3 -6 0
2 3 6 0
20 -21 6 0
20 -6 21 0
200 -194 -198 0
200 -198 -12 0
200 194 -12 0
201 -202 -204 0
201 -204 -211 0
201 202 -211 0
202 -203 -104 0
203 -135 -186 0
204 -205 -206 0
204 -206 -12 0
204 205 -12 0
205 -60 -6 0
205 60 6 0
206 -153 -207 0
206 -207 -12 0
206 153 -12 0
207 -116 -208 0
207 -208 -12 0
207 116 -12 0
208 -120 -209 0
208 -209 -12 0
208 120 -12 0
209 -124 -210 0
209 -210 -12 0
209 124 -12 0
21 22 0
210 -160 -12 0
210 -84 -160 0
210 84 -12 0
211 -212 -214 0
211 -214 -224 0
211 212 -224 0
212 -166 -213 0
213 -105 -6 0
213 105 6 0
214 -215 -12 0
214 -59 -215 0
214 59 -12 0
215 -153 -216 0
215 -216 -12 0
215 153 -12 0
216 -217 -221 0
216 -221 -156 0
216 217 -156 0
217 -218 -6 0
217 218 6 0
218 -219 6 0
218 -6 219 0
219 220 0
221 -116 -222 0
221 -222 -12 0
221 116 -12 0
222 -223 -12 0
222 -74 -223 0
222 74 -12 0
223 -148 -159 0
223 -159 -12 0
223 148 -12 0
224 -169 -227 0
224 -225 -169 0
224 225 -227 0
225 -226 -104 0
226 -167 -186 0
227 -228 -230 0
227 -230 -234 0
227 228 -234 0
228 -229 -104 0
229 -177 -186 0
23 -24 -28 0
23 -28 -12 0
23 24 -12 0
230 -111 -231 0
230 -231 -12 0
230 111 -12 0
231 -153 -232 0
231 -232 -12 0
231 153 -12 0
232 -157 -12 0
232 -233 -157 0
232 233 -12 0
233 -70 -6 0
233 70 6 0
234 -187 -236 0
234 -235 -187 0
234 235 -236 0
235 -96 -213 0
236 -12 -238 0
236 -237 -12 0
236 237 -238 0
237 -134 -213 0
238 -239 -250 0
238 -59 -239 0
238 59 -250 0
239 -111 -240 0
239 -240 -249 0
239 111 -249 0
24 -25 -12 0
24 25 12 0
240 -241 -242 0
240 -242 -63 0
240 241 -63 0
241 -176 -213 0
242 -243 -247 0
242 -64 -243 0
242 64 -247 0
243 -153 -244 0
243 -244 -246 0
243 153 -246 0
244 -217 -245 0
244 -245 -156 0
244 217 -156 0
245 -119 -12 0
245 -69 -119 0
245 69 -12 0
246 -217 -245 0
246 -245 -12 0
246 217 -12 0
247 -153 -248 0
247 -248 -12 0
247 153 -12 0
248 -12 -156 0
248 -217 -12 0
248 217 -156 0
249 -12 -63 0
249 -241 -12 0
249 241 -63 0
25 -26 6 0
25 -6 26 0
250 -111 -251 0
250 -251 -12 0
250 111 -12 0
251 -241 -242 0
251 -242 -12 0
251 241 -12 0
252 -12 -253 0
252 -133 -12 0
252 133 -253 0
253 -12 -254 0
253 -165 -12 0
253 165 -254 0
254 -12 -255 0
254 -175 -12 0
254 175 -255 0
255 -12 -256 0
255 -184 -12 0
255 184 -256 0
256 -12 -257 0
256 -202 -12 0
256 202 -257 0
257 -12 -258 0
257 -212 -12 0
257 212 -258 0
258 -12 -259 0
258 -225 -12 0
258 225 -259 0
259 -12 -260 0
259 -228 -12 0
259 228 -260 0
26 27 0
260 -12 -236 0
260 -235 -12 0
260 235 -236 0
261 -106 -262 0
261 -95 -106 0
261 95 -262 0
262 -107 -263 0
262 -263 -274 0
262 107 -274 0
263 -133 -137 0
263 -137 -264 0
263 133 -264 0
264 -165 -169 0
264 -169 -265 0
264 165 -265 0
265 -175 -178 0
265 -178 -266 0
265 175 -266 0
266 -184 -187 0
266 -187 -267 0
266 184 -267 0
267 -202 -204 0
267 -204 -268 0
267 202 -268 0
268 -212 -214 0
268 -214 -269 0
268 212 -269 0
269 -169 -270 0
269 -225 -169 0
269 225 -270 0
270 -228 -230 0
270 -230 -271 0
270 228 -271 0
271 -187 -272 0
271 -235 -187 0
271 235 -272 0
272 -237 -273 0
272 -273 -12 0
272 237 -12 0
273 -111 -206 0
273 -206 -12 0
273 111 -12 0
274 -12 -275 0
274 -133 -12 0
274 133 -275 0
275 -12 -276 0
275 -165 -12 0
275 165 -276 0
276 -12 -277 0
276 -175 -12 0
276 175 -277 0
277 -12 -278 0
277 -184 -12 0
277 184 -278 0
278 -12 -279 0
278 -202 -12 0
278 202 -279 0
279 -12 -280 0
279 -212 -12 0
279 212 -280 0
28 -29 -33 0
28 -33 -12 0
28 29 -12 0
280 -12 -281 0
280 -225 -12 0
280 225 -281 0
281 -12 -282 0
281 -228 -12 0
281 228 -282 0
282 -12 -272 0
282 -235 -12 0
282 235 -272 0
283 -284 -475 0
283 -8 -284 0
283 8 -475 0
284 -285 -296 0
284 -296 -339 0
284 285 -339 0
285 -286 -294 0
286 -287 -292 0
287 -288 -290 0
288 -289 -12 0
288 289 12 0
29 -30 -12 0
29 30 12 0
290 -291 -12 0
290 291 12 0
292 -293 -12 0
292 293 12 0
294 -295 -12 0
294 295 12 0
296 -297 -303 0
296 -303 -12 0
296 297 -12 0
297 -298 -12 0
297 298 12 0
298 -12 299 0
298 -299 12 0
299 -300 9 0
299 -9 300 0
3 -4 6 0
3 -6 4 0
30 -31 6 0
30 -6 31 0
300 -301 6 0
300 -6 301 0
301 302 0
303 -304 -310 0
303 -310 -12 0
303 304 -12 0
304 -305 -12 0
304 305 12 0
305 -12 306 0
305 -306 12 0
306 -15 307 0
306 -307 15 0
307 -308 6 0
307 -6 308 0
308 309 0
31 32 0
310 -19 -311 0
310 -311 -12 0
310 19 -12 0
311 -312 -318 0
311 -318 -12 0
311 312 -12 0
312 -313 -12 0
312 313 12 0
313 -12 314 0
313 -314 12 0
314 -25 315 0
314 -315 25 0
315 -316 6 0
315 -6 316 0
316 317 0
318 -319 -325 0
318 -325 -12 0
318 319 -12 0
319 -320 -12 0
319 320 12 0
320 -12 321 0
320 -321 12 0
321 -30 322 0
321 -322 30 0
322 -323 6 0
322 -6 323 0
323 324 0
325 -326 -332 0
325 -332 -12 0
325 326 -12 0
326 -327 -12 0
326 327 12 0
327 -12 328 0
327 -328 12 0
328 -329 35 0
328 -35 329 0
329 -330 6 0
329 -6 330 0
33 -34 -38 0
33 -38 -12 0
33 34 -12 0
330 331 0
332 -333 -43 0
332 -43 -12 0
332 333 -12 0
333 -334 -12 0
333 334 12 0
334 -12 335 0
334 -335 12 0
335 -336 40 0
335 -40 336 0
336 -337 6 0
336 -6 337 0
337 338 0
339 -297 -340 0
339 -340 -466 0
339 297 -466 0
34 -35 -12 0
34 35 12 0
340 -341 -345 0
340 -345 -378 0
340 341 -378 0
341 -342 -294 0
342 -343 -292 0
343 -344 -290 0
344 -289 -6 0
344 289 6 0
345 -304 -346 0
345 -346 -12 0
345 304 -12 0
346 -347 -351 0
346 -351 -360 0
346 347 -360 0
347 -348 -6 0
347 348 6 0
348 -349 6 0
348 -6 349 0
349 350 0
35 -36 6 0
35 -6 36 0
351 -352 -353 0
351 -353 -12 0
351 352 -12 0
352 -20 -12 0
352 20 12 0
353 -312 -354 0
353 -354 -12 0
353 312 -12 0
354 -319 -355 0
354 -355 -12 0
354 319 -12 0
355 -356 -357 0
355 -357 -12 0
355 356 -12 0
356 -35 -6 0
356 35 6 0
357 -333 -358 0
357 -358 -12 0
357 333 -12 0
358 -359 -48 0
358 -48 -12 0
358 359 -12 0
359 -45 -6 0
359 45 6 0
36 37 0
360 -361 -367 0
360 -367 -12 0
360 361 -12 0
361 -362 -12 0
361 362 12 0
362 -12 363 0
362 -363 12 0
363 -20 364 0
363 -364 20 0
364 -365 6 0
364 -6 365 0
365 366 0
367 -312 -368 0
367 -368 -12 0
367 312 -12 0
368 -319 -369 0
368 -369 -12 0
368 319 -12 0
369 -326 -370 0
369 -370 -12 0
369 326 -12 0
370 -333 -371 0
370 -371 -12 0
370 333 -12 0
371 -372 -48 0
371 -48 -12 0
371 372 -12 0
372 -373 -12 0
372 373 12 0
373 -12 374 0
373 -374 12 0
374 -375 45 0
374 -45 375 0
375 -376 6 0
375 -6 376 0
376 377 0
378 -379 -383 0
378 -383 -388 0
378 379 -388 0
379 -380 -294 0
38 -39 -43 0
38 -43 -12 0
38 39 -12 0
380 -381 -292 0
381 -288 -382 0
382 -291 -6 0
382 291 6 0
383 -304 -384 0
383 -384 -12 0
383 304 -12 0
384 -361 -385 0
384 -385 -12 0
384 361 -12 0
385 -312 -386 0
385 -386 -12 0
385 312 -12 0
386 -319 -387 0
386 -387 -12 0
386 319 -12 0
387 -34 -370 0
387 -370 -12 0
387 34 -12 0
388 -389 -392 0
388 -392 -397 0
388 389 -397 0
389 -390 -294 0
39 -40 -12 0
39 40 12 0
390 -391 -292 0
391 -344 -382 0
392 -304 -393 0
392 -393 -12 0
392 304 -12 0
393 -361 -394 0
393 -394 -12 0
393 361 -12 0
394 -312 -395 0
394 -395 -12 0
394 312 -12 0
395 -369 -12 0
395 -396 -369 0
395 396 -12 0
396 -30 -6 0
396 30 6 0
397 -398 -401 0
397 -401 -415 0
397 398 -415 0
398 -399 -294 0
399 -287 -400 0
4 5 0
40 -41 6 0
40 -6 41 0
400 -293 -6 0
400 293 6 0
401 -304 -402 0
401 -402 -12 0
401 304 -12 0
402 -361 -403 0
402 -403 -12 0
402 361 -12 0
403 -312 -404 0
403 -404 -12 0
403 312 -12 0
404 -319 -405 0
404 -405 -12 0
404 319 -12 0
405 -326 -406 0
405 -406 -12 0
405 326 -12 0
406 -333 -407 0
406 -407 -414 0
406 333 -414 0
407 -408 -412 0
407 -412 -371 0
407 408 -371 0
408 -409 -6 0
408 409 6 0
409 -410 6 0
409 -6 410 0
41 42 0
410 411 0
412 -371 -12 0
412 -413 -371 0
412 413 -12 0
413 -40 -6 0
413 40 6 0
414 -408 -412 0
414 -412 -12 0
414 408 -12 0
415 -416 -418 0
415 -418 -425 0
415 416 -425 0
416 -417 -294 0
417 -343 -400 0
418 -419 -420 0
418 -420 -12 0
418 419 -12 0
419 -15 -6 0
419 15 6 0
420 -361 -421 0
420 -421 -12 0
420 361 -12 0
421 -312 -422 0
421 -422 -12 0
421 312 -12 0
422 -319 -423 0
422 -423 -12 0
422 319 -12 0
423 -326 -424 0
423 -424 -12 0
423 326 -12 0
424 -371 -12 0
424 -39 -371 0
424 39 -12 0
425 -426 -428 0
425 -428 -438 0
425 426 -438 0
426 -380 -427 0
427 -295 -6 0
427 295 6 0
428 -14 -429 0
428 -429 -12 0
428 14 -12 0
429 -361 -430 0
429 -430 -12 0
429 361 -12 0
43 -44 -48 0
43 -48 -12 0
43 44 -12 0
430 -431 -435 0
430 -435 -367 0
430 431 -367 0
431 -432 -6 0
431 432 6 0
432 -433 6 0
432 -6 433 0
433 434 0
435 -312 -436 0
435 -436 -12 0
435 312 -12 0
436 -29 -437 0
436 -437 -12 0
436 29 -12 0
437 -356 -370 0
437 -370 -12 0
437 356 -12 0
438 -383 -441 0
438 -439 -383 0
438 439 -441 0
439 -440 -294 0
44 -45 -12 0
44 45 12 0
440 -381 -400 0
441 -442 -444 0
441 -444 -448 0
441 442 -448 0
442 -443 -294 0
443 -391 -400 0
444 -304 -445 0
444 -445 -12 0
444 304 -12 0
445 -361 -446 0
445 -446 -12 0
445 361 -12 0
446 -368 -12 0
446 -447 -368 0
446 447 -12 0
447 -25 -6 0
447 25 6 0
448 -401 -450 0
448 -449 -401 0
448 449 -450 0
449 -286 -427 0
45 -46 6 0
45 -6 46 0
450 -12 -452 0
450 -451 -12 0
450 451 -452 0
451 -342 -427 0
452 -14 -453 0
452 -453 -464 0
452 14 -464 0
453 -304 -454 0
453 -454 -463 0
453 304 -463 0
454 -455 -456 0
454 -456 -18 0
454 455 -18 0
455 -390 -427 0
456 -19 -457 0
456 -457 -461 0
456 19 -461 0
457 -361 -458 0
457 -458 -460 0
457 361 -460 0
458 -431 -459 0
458 -459 -367 0
458 431 -367 0
459 -24 -318 0
459 -318 -12 0
459 24 -12 0
46 47 0
460 -431 -459 0
460 -459 -12 0
460 431 -12 0
461 -361 -462 0
461 -462 -12 0
461 361 -12 0
462 -12 -367 0
462 -431 -12 0
462 431 -367 0
463 -12 -18 0
463 -455 -12 0
463 455 -18 0
464 -304 -465 0
464 -465 -12 0
464 304 -12 0
465 -455 -456 0
465 -456 -12 0
465 455 -12 0
466 -12 -467 0
466 -341 -12 0
466 341 -467 0
467 -12 -468 0
467 -379 -12 0
467 379 -468 0
468 -12 -469 0
468 -389 -12 0
468 389 -469 0
469 -12 -470 0
469 -398 -12 0
469 398 -470 0
470 -12 -471 0
470 -416 -12 0
470 416 -471 0
471 -12 -472 0
471 -426 -12 0
471 426 -472 0
472 -12 -473 0
472 -439 -12 0
472 439 -473 0
473 -12 -474 0
473 -442 -12 0
473 442 -474 0
474 -12 -450 0
474 -449 -12 0
474 449 -450 0
475 -285 -296 0
475 -296 -476 0
475 285 -476 0
476 -297 -477 0
476 -477 -488 0
476 297 -488 0
477 -341 -345 0
477 -345 -478 0
477 341 -478 0
478 -379 -383 0
478 -383 -479 0
478 379 -479 0
479 -389 -392 0
479 -392 -480 0
479 389 -480 0
48 -49 -53 0
48 -53 -93 0
48 49 -93 0
480 -398 -401 0
480 -401 -481 0
480 398 -481 0
481 -416 -418 0
481 -418 -482 0
481 416 -482 0
482 -426 -428 0
482 -428 -483 0
482 426 -483 0
483 -383 -484 0
483 -439 -383 0
483 439 -484 0
484 -442 -444 0
484 -444 -485 0
484 442 -485 0
485 -401 -486 0
485 -449 -401 0
485 449 -486 0
486 -451 -487 0
486 -487 -12 0
486 451 -12 0
487 -304 -420 0
487 -420 -12 0
487 304 -12 0
488 -12 -489 0
488 -341 -12 0
488 341 -489 0
489 -12 -490 0
489 -379 -12 0
489 379 -490 0
49 -50 -6 0
49 50 6 0
490 -12 -491 0
490 -389 -12 0
490 389 -491 0
491 -12 -492 0
491 -398 -12 0
491 398 -492 0
492 -12 -493 0
492 -416 -12 0
492 416 -493 0
493 -12 -494 0
493 -426 -12 0
493 426 -494 0
494 -12 -495 0
494 -439 -12 0
494 439 -495 0
495 -12 -496 0
495 -442 -12 0
495 442 -496 0
496 -12 -486 0
496 -449 -12 0
496 449 -486 0
50 -51 6 0
50 -6 51 0
51 52 0
53 -54 -58 0
53 -58 -12 0
53 54 -12 0
54 -55 -12 0
54 55 12 0
55 -56 6 0
55 -6 56 0
56 57 0
58 -59 -63 0
58 -63 -12 0
58 59 -12 0
59 -60 -12 0
59 60 12 0
6 0
60 -6 61 0
60 -61 6 0
61 62 0
63 -64 -68 0
63 -68 -12 0
63 64 -12 0
64 -65 -6 0
64 65 6 0
65 -6 66 0
65 -66 6 0
66 67 0
68 -69 -73 0
68 -73 -12 0
68 69 -12 0
69 -70 -12 0
69 70 12 0
7 -13 -12 0
7 -8 -13 0
7 8 -12 0
70 -6 71 0
70 -71 6 0
71 72 0
73 -74 -78 0
73 -78 -12 0
73 74 -12 0
74 -75 -12 0
74 75 12 0
75 -6 76 0
75 -76 6 0
76 77 0
78 -79 -83 0
78 -83 -12 0
78 79 -12 0
79 -80 -12 0
79 80 12 0
8 -9 -12 0
8 9 12 0
80 -6 81 0
80 -81 6 0
81 82 0
83 -84 -88 0
83 -88 -12 0
83 84 -12 0
84 -85 -12 0
84 85 12 0
85 -6 86 0
85 -86 6 0
86 87 0
88 -6 -12 0
88 -89 -6 0
88 89 -12 0
89 -90 -12 0
89 90 12 0
9 -10 6 0
9 -6 10 0
90 -6 91 0
90 -91 6 0
91 92 0
93 -54 -94 0
93 -94 -261 0
93 54 -261 0
94 -106 -131 0
94 -95 -106 0
94 95 -131 0
95 -96 -104 0
96 -97 -102 0
97 -98 -100 0
98 -99 -12 0
98 99 12 0
